loading and setting up data
solve the MILP problem with FJSS4_v2
the inferred big_m value with Runzhong version is 4394.0
Set parameter Username
Academic license - for non-commercial use only - expires 2025-01-27
Gurobi Optimizer version 11.0.0 build v11.0.0rc2 (linux64 - "Ubuntu 20.04.4 LTS")

CPU model: AMD Ryzen Threadripper PRO 3995WX 64-Cores, instruction set [SSE2|AVX|AVX2]
Thread count: 64 physical cores, 128 logical processors, using up to 32 threads

Optimize a model with 77770 rows, 21616 columns and 393390 nonzeros
Model fingerprint: 0x4fa86637
Variable types: 111 continuous, 21505 integer (21505 binary)
Coefficient statistics:
  Matrix range     [1e+00, 1e+07]
  Objective range  [1e+00, 1e+00]
  Bounds range     [1e-05, 1e+00]
  RHS range        [1e+00, 1e+07]
Presolve removed 12546 rows and 14386 columns
Presolve time: 1.61s
Presolved: 65224 rows, 7230 columns, 317928 nonzeros
Variable types: 111 continuous, 7119 integer (7119 binary)
Warning: Markowitz tolerance tightened to 0.03125

Root simplex log...

Iteration    Objective       Primal Inf.    Dual Inf.      Time
    8088    1.7938704e+38   5.035812e+38   1.793870e+08      5s
Warning: Markowitz tolerance tightened to 0.125
   11368    1.0767517e+35   2.839545e+37   1.076752e+05     10s
   13391    6.9800000e+02   0.000000e+00   0.000000e+00     12s
   13391    6.9800000e+02   0.000000e+00   0.000000e+00     12s
   13391    6.9800000e+02   0.000000e+00   0.000000e+00     12s

Use crossover to convert LP symmetric solution to basic solution...

Root crossover log...

      11 DPushes remaining with DInf 0.0000000e+00                12s
       0 DPushes remaining with DInf 0.0000000e+00                12s

     194 PPushes remaining with PInf 0.0000000e+00                12s
       0 PPushes remaining with PInf 0.0000000e+00                12s

  Push phase complete: Pinf 0.0000000e+00, Dinf 1.3107200e+05     12s


Root simplex log...

Iteration    Objective       Primal Inf.    Dual Inf.      Time
   13593    6.9800000e+02   0.000000e+00   1.310720e+05     12s
   13597    6.9800000e+02   0.000000e+00   0.000000e+00     12s
   13597    6.9800000e+02   0.000000e+00   0.000000e+00     12s

Root relaxation: objective 6.980000e+02, 13597 iterations, 9.50 seconds (6.99 work units)

    Nodes    |    Current Node    |     Objective Bounds      |     Work
 Expl Unexpl |  Obj  Depth IntInf | Incumbent    BestBd   Gap | It/Node Time

     0     0  698.00000    0   50          -  698.00000      -     -   12s
     0     0  698.00000    0   36          -  698.00000      -     -   18s
     0     0  698.00000    0   49          -  698.00000      -     -   20s
     0     0  698.00000    0   55          -  698.00000      -     -   21s
     0     0  698.00000    0   44          -  698.00000      -     -   24s
     0     0  698.00000    0   50          -  698.00000      -     -   26s
     0     0  698.00000    0   41          -  698.00000      -     -   27s
     0     0  698.00000    0   26          -  698.00000      -     -   32s
     0     0  698.00000    0   24          -  698.00000      -     -   32s
     0     0  698.00000    0   22          -  698.00000      -     -   34s
     0     0  698.00000    0   20          -  698.00000      -     -   35s
     0     0  698.00000    0   19          -  698.00000      -     -   35s
     0     0  698.00000    0   19          -  698.00000      -     -   37s
     0     0  698.00000    0   48          -  698.00000      -     -   49s
     0     0  698.00000    0   46          -  698.00000      -     -   51s
     0     0  698.00000    0   39          -  698.00000      -     -   51s
     0     0  698.00000    0   37          -  698.00000      -     -   53s
     0     0  698.00000    0   37          -  698.00000      -     -   53s
H    0     0                    1515.0000000  698.00000  53.9%     -   55s
     0     0  698.00000    0   29 1515.00000  698.00000  53.9%     -   56s
     0     0  698.00000    0   29 1515.00000  698.00000  53.9%     -   57s
     0     0  698.00000    0   34 1515.00000  698.00000  53.9%     -   59s
     0     0  698.00000    0   19 1515.00000  698.00000  53.9%     -   59s
H    0     0                    1496.0000000  698.00000  53.3%     -   60s
     0     0  698.00000    0   28 1496.00000  698.00000  53.3%     -   60s
     0     0  698.00000    0   28 1496.00000  698.00000  53.3%     -   60s
H    0     0                    1486.0000000  698.00000  53.0%     -   60s
H    0     0                    1465.0000000  698.00000  52.4%     -   60s
     0     0  698.00000    0   20 1465.00000  698.00000  52.4%     -   60s
H    0     0                    1448.0000000  698.00000  51.8%     -   61s
     0     0  698.00000    0   37 1448.00000  698.00000  51.8%     -   61s
H    0     0                    1438.0000000  698.00000  51.5%     -   61s
     0     0  698.00000    0   29 1438.00000  698.00000  51.5%     -   61s
H    0     0                    1392.0000000  698.00000  49.9%     -   61s
     0     0  698.00000    0   47 1392.00000  698.00000  49.9%     -   61s
H    0     0                    1363.0000000  698.00000  48.8%     -   61s
     0     0  698.00000    0   11 1363.00000  698.00000  48.8%     -   62s
     0     0  698.00000    0   12 1363.00000  698.00000  48.8%     -   62s
     0     0  698.00000    0   14 1363.00000  698.00000  48.8%     -   62s
     0     0  698.00000    0   14 1363.00000  698.00000  48.8%     -   62s
     0     0  698.00000    0   16 1363.00000  698.00000  48.8%     -   62s
     0     0  698.00000    0   15 1363.00000  698.00000  48.8%     -   62s
     0     0  698.00000    0   19 1363.00000  698.00000  48.8%     -   62s
     0     0  698.00000    0   10 1363.00000  698.00000  48.8%     -   63s
     0     2  698.00000    0    9 1363.00000  698.00000  48.8%     -   63s
    31    55  698.00000    5   20 1363.00000  698.00000  48.8%  97.7   65s
H  158   172                    1152.0000000  698.00000  39.4%  57.0   69s
H  177   172                     994.0000000  698.00000  29.8%  57.9   69s
   190   199  698.00000    9   24  994.00000  698.00000  29.8%  56.9   74s
H  191   199                     984.0000000  698.00000  29.1%  56.6   74s
H  192   199                     979.0000000  698.00000  28.7%  56.3   74s
H  195   199                     968.0000000  698.00000  27.9%  56.3   74s
H  199   199                     882.0000000  698.00000  20.9%  56.2   74s
H  250   243                     859.0000000  698.00000  18.7%  52.5   74s
H  307   286                     846.0000000  698.00000  17.5%  50.6   74s
   549   607  698.00000   19   42  846.00000  698.00000  17.5%  47.6   75s
  5340  2820  776.00000   32   18  846.00000  698.00000  17.5%  35.3   80s
H 5447  2769                     839.0000000  698.00000  16.8%  36.7   84s
H 5462  2629                     826.0000000  698.00000  15.5%  36.7   84s
  5479  2635     cutoff   21       826.00000  698.00000  15.5%  36.7   85s
H 5512  2507                     793.0000000  698.00000  12.0%  36.7   87s
H 5514  2384                     767.0000000  698.00000  9.00%  36.7   87s
H 5522  2267                     749.0000000  698.00000  6.81%  36.7   87s
  6373  2512  698.00000   25   20  749.00000  698.00000  6.81%  42.0   90s
  9448  2208 infeasible   27       749.00000  698.00000  6.81%  58.7   95s
 11919  1607 infeasible   34       749.00000  698.00000  6.81%  64.2  104s
H11923  1607                     748.9999999  698.00000  6.81%  64.2  104s
H11942  1607                     748.0000000  698.00000  6.68%  64.3  104s
H11949  1607                     738.0000000  698.00000  5.42%  64.3  104s
H11961  1607                     732.0000000  698.00000  4.64%  64.3  104s
 11980  1683 infeasible   36       732.00000  698.00000  4.64%  64.3  106s
 13786  1840 infeasible   42       732.00000  698.00000  4.64%  68.2  112s
 17412  1945  698.00000   41   22  732.00000  698.00000  4.64%  73.6  116s
 21791  2032 infeasible   38       732.00000  698.00000  4.64%  75.6  122s
 23459  2013  698.00000   33   39  732.00000  698.00000  4.64%  76.6  125s
 27083  2070 infeasible   29       732.00000  698.00000  4.64%  78.5  135s
H27328  2070                     731.9999999  698.00000  4.64%  78.9  135s
 30331  2213  698.00000   24   16  732.00000  698.00000  4.64%  79.5  142s
 32999  2244  698.00000   33   19  732.00000  698.00000  4.64%  79.9  146s
 35436  2230 infeasible   31       732.00000  698.00000  4.64%  80.4  151s
 37411  2198 infeasible   36       732.00000  698.00000  4.64%  80.8  155s
 44115  2254  698.00000   33   28  732.00000  698.00000  4.64%  81.7  163s
 46946  2256  703.00000   42   14  732.00000  698.00000  4.64%  81.9  165s
 46963  2268  698.00000   32   23  732.00000  698.00000  4.64%  81.9  170s
 47189  2404  698.00000   40   30  732.00000  698.00000  4.64%  81.9  177s
 47389  2481 infeasible   46       732.00000  698.00000  4.64%  81.7  180s
 49911  2441 infeasible   66       732.00000  698.00000  4.64%  79.8  185s
 52105  1922  714.00000   61   31  732.00000  698.00000  4.64%  78.4  190s
 56954  1873  698.00000   61   22  732.00000  698.00000  4.64%  75.5  196s
 71999  5835  698.00000   63   26  732.00000  698.00000  4.64%  63.5  200s
 96839  7227 infeasible   64       732.00000  698.00000  4.64%  50.4  207s
 98739  6926  698.00000   53   30  732.00000  698.00000  4.64%  50.2  210s
 101024  6618  698.00000   50   33  732.00000  698.00000  4.64%  50.1  216s
 117038  8001  698.00000   53   39  732.00000  698.00000  4.64%  45.4  249s
 117205  6352 infeasible   54       732.00000  698.00000  4.64%  45.4  269s
 128468  5722 infeasible   48       732.00000  698.00000  4.64%  45.0  273s
 132170  8164  704.00000   69   32  732.00000  698.00000  4.64%  45.1  276s
 159908  5082 infeasible   45       732.00000  698.00000  4.64%  39.0  283s
 163180  4403 infeasible   65       732.00000  708.00000  3.28%  38.7  286s
 169776  5404  708.00000   44   42  732.00000  708.00000  3.28%  38.8  292s
 198582  2010  708.00000   47   42  732.00000  708.00000  3.28%  34.7  297s

Cutting planes:
  Gomory: 4
  Cover: 19
  Implied bound: 3
  Projected implied bound: 1
  Flow cover: 17
  Relax-and-lift: 2

Explored 204828 nodes (7065952 simplex iterations) in 299.06 seconds (166.49 work units)
Thread count was 32 (of 128 available processors)

Solution count 10: 732 732 732 ... 793

Optimal solution found (tolerance 1.00e-04)
Best objective 7.320000000000e+02, best bound 7.320000000000e+02, gap 0.0000%
the solution is : 732.0
checking if the solution satisfies the constraints of MILP
shape of para_a = (55, 55, 6)
the solution satisfies the constraints of MILP formulation.
checking if the solution satisfies the constraints of CP
inferring var_u with eq. (24)
checking eq. (24)
the solution satisfies the constraints of CP formulation.
congragulations! Everything is good now.
